23 53 19 16 40 43 35 20 3 69 28 30 26 77 80 79 11 7 92 83 74 64 95 46 76 14 13 22 97 1 65 63 72 71 44 99 39 24 48 85 75 27 62 59 56 89 90 58 73 93 41 34 57 21 4 25 47 66 96 5 54 87 84 52 38 18 2 98 82 42 17 37 6 68 9 70 8 60 45 33 94 91 55 88 32 51 29 36 15 67 78 0 10 81 50 61 12 31 86 49